param n := 2;

param m := 2;

param K := 50;

param a :=
1 	 0.263297
2 	 0.065961
;
 param A :=
[1, *, *]:  1	2	:=
1	0.470132	0.815632	
2	0.544356	0.863944	

[2, *, *]:  1	2	:=
1	-0.972097	0.233557	
2	-0.531276	0.898033	
;